language ESSENCE' 1.0
letting shiftRequirements = [[5, 5, 8, 2], [1, 5, 6, 8], [1, 5, 7, 7], [1, 5, 6, 8], [4, 1, 8, 7], [13, 1, 5, 1], [13, 1, 5, 1]]
letting numberOfWeeks = 20
letting s_min = 2
letting s_max = 4
